c This is QMaxSAT 2017 based on 14.07
c This is Glucose 3.0
c This is MiniSat 2.2.0
c WARNING: for repeatability, setting FPU to use double precision
c card = mrwto, comp = 0, pmodel = 0, narr = 2, mct = 29, verb = 0
cr firstCPXsol 0 0 0
c top = 167313
c |  Number of variables:    22850                                            |
c |  Number of clauses:      7809820                                          |
c |  Weight of hard clauses: 167313                                           |
c |  Number of soft clauses: 1624                                             |
c |  Number of unit soft clauses: 1624                                        |
c |  Maximum Cardinality (by unit): 334624       (334624      )               |
c last restart ## conflicts  :  20 5435 
o 3186 | cpuTime 0.666883 s
c Sum of weights = 167312
c A number of soft clauses remained = 812
c MRWTO encoding for Pseudo-Boolean Constraints
c sizeMax=3186
c No.0 Divisor=15	generated by pow1
c No.1 Divisor=15	generated by pow1
c No.2 Divisor=15	generated by pow1
c p0= 15	p1= 15	p2= 15	
c number of digits = 4
c linkingVar[0].size = 15, linkingVar[1].size = 15, linkingVar[2].size = 15, linkingVar[3].size = 1, 
c Pseudo-Boolean Constraints: 20752 variables and 251002 clauses
c Sum of weights = 167312
c A number of soft clauses remained = 812
c MRWTO encoding for Pseudo-Boolean Constraints
c sizeMax=3186
c No.0 Divisor=15	generated by pow1
c No.1 Divisor=15	generated by pow1
c No.2 Divisor=15	generated by pow1
c p0= 15	p1= 15	p2= 15	
c number of digits = 4
c linkingVar[0].size = 15, linkingVar[1].size = 15, linkingVar[2].size = 15, linkingVar[3].size = 1, 
c Pseudo-Boolean Constraints: 20752 variables and 251002 clauses
c last restart ## conflicts  :  1324 6495 
o 2843 | cpuTime 5.36271 s
c last restart ## conflicts  :  537 6775 
o 2432 | cpuTime 26.7808 s
c last restart ## conflicts  :  278 7563 
o 2121 | cpuTime 52.1415 s
c last restart ## conflicts  :  49 6789 
o 1804 | cpuTime 139.57 s
c last restart ## conflicts  :  702 6880 
o 1705 | cpuTime 402.393 s
c last restart ## conflicts  :  362 6849 
o 1638 | cpuTime 794.761 s
c last restart ## conflicts  :  140 6094 
o 1604 | cpuTime 841.999 s
c last restart ## conflicts  :  509 9757 
o 1441 | cpuTime 1152.6 s
c last restart ## conflicts  :  1309 7568 
o 1436 | cpuTime 2604.95 s
s UNKNOWN
c Search is stopped by a limit (maybe time-limit)
cr positiVarArr: [ | 13@1(1->13) | 50@1(2->21) | 199@1(7->25) | 210@1(8->7) | 263@1(10->2) | 364@1(13->16) | 387@1(14->10) | 423@1(15->17) | 459@1(16->24) | 486@1(17->22) | 537@1(19->15) | 581@1(21->1) | 623@1(22->14) | 675@1(24->8) | 715@1(25->19) | 869@2(1->28) | 919@2(3->20) | 946@2(4->18) | 983@2(5->26) | 998@2(6->12) | 1078@2(9->5) | 1154@2(11->23) | 1169@2(12->9) | 1345@2(18->11) | 1396@2(20->4) | 1506@2(23->27) | 1595@2(26->29) | 1596@2(27->1) | 1630@2(28->6) | 1656@2(29->3) | ]
cr the 1-th chain: [ 1->13->16->24->8->7->25->19->15->17->22->14->10->2->21->1 ] (#non-depot=14) {#cumul.=15}
cr the 2-th chain: [ 1->28->6->12->9->5->26->29->3->20->4->18->11->23->27->1 ] (#non-depot=14) {#cumul.=29}
c Latest Answer = 0 by 10 loops
c restarts              : 90249
c conflicts             : 15100248       (4207 /sec)
c decisions             : 96469563       (0.00 % random) (26875 /sec)
c propagations          : 13911272121    (3875547 /sec)
c conflict literals     : 3054592693     (19.39 % deleted)
c Memory used           : 1203.00 MB
c CPU time              : 3589.5 s
